AFM-II NiO Ni-up/Ni-down formal species
1.0000000000000000
      4.180289544697     2.089640621341     2.089640621341
      2.089640621341     4.180289544697     2.089640621341
      2.089640621341     2.089640621341     4.180289544697
  Ni_up Ni_down O
  1 1 2
Direct
  0.0000000000000000 0.0000000000000000 0.0000000000000000
  0.5000000000000000 0.5000000000000000 0.5000000000000000
  0.2500000000000000 0.2500000000000000 0.2500000000000000
  0.7500000000000000 0.7500000000000000 0.7500000000000000
