Ni4                                     
   1.0000000000000000     
     3.5179852335219861    0.0000000000000000    0.0000000000000002
     0.0000000000000006    3.5179852335219861    0.0000000000000002
    -0.0000000000000000   -0.0000000000000000    3.5179852335219861
  Ni            
     4
Direct
     0.0000000000000000    0.0000000000000000    0.0000000000000000
     0.0000000000000000    0.5000000000000000    0.5000000000000000
     0.5000000000000000    0.0000000000000000    0.5000000000000000
     0.5000000000000000    0.5000000000000000    0.0000000000000000

  0.00000000E+00  0.00000000E+00  0.00000000E+00
  0.00000000E+00  0.00000000E+00  0.00000000E+00
  0.00000000E+00  0.00000000E+00  0.00000000E+00
  0.00000000E+00  0.00000000E+00  0.00000000E+00
