AFM-II NiO 2x2x2 phonon supercell
1.0000000000000000
      8.360579089395     4.179281242682     4.179281242682
      4.179281242682     8.360579089395     4.179281242682
      4.179281242682     4.179281242682     8.360579089395
  Ni O
  16 16
Direct
      0.000000000000     0.000000000000     0.000000000000
      0.000000000000     0.000000000000     0.500000000000
      0.000000000000     0.500000000000     0.000000000000
      0.000000000000     0.500000000000     0.500000000000
      0.500000000000     0.000000000000     0.000000000000
      0.500000000000     0.000000000000     0.500000000000
      0.500000000000     0.500000000000     0.000000000000
      0.500000000000     0.500000000000     0.500000000000
      0.250000000000     0.250000000000     0.250000000000
      0.250000000000     0.250000000000     0.750000000000
      0.250000000000     0.750000000000     0.250000000000
      0.250000000000     0.750000000000     0.750000000000
      0.750000000000     0.250000000000     0.250000000000
      0.750000000000     0.250000000000     0.750000000000
      0.750000000000     0.750000000000     0.250000000000
      0.750000000000     0.750000000000     0.750000000000
      0.125000000000     0.125000000000     0.125000000000
      0.125000000000     0.125000000000     0.625000000000
      0.125000000000     0.625000000000     0.125000000000
      0.125000000000     0.625000000000     0.625000000000
      0.625000000000     0.125000000000     0.125000000000
      0.625000000000     0.125000000000     0.625000000000
      0.625000000000     0.625000000000     0.125000000000
      0.625000000000     0.625000000000     0.625000000000
      0.375000000000     0.375000000000     0.375000000000
      0.375000000000     0.375000000000     0.875000000000
      0.375000000000     0.875000000000     0.375000000000
      0.375000000000     0.875000000000     0.875000000000
      0.875000000000     0.375000000000     0.375000000000
      0.875000000000     0.375000000000     0.875000000000
      0.875000000000     0.875000000000     0.375000000000
      0.875000000000     0.875000000000     0.875000000000
