AFM-II NiO Ni-up/Ni-down formal species 1x1x1 phonon supercell
1.0000000000000000
      4.180289544697     2.089640621341     2.089640621341
      2.089640621341     4.180289544697     2.089640621341
      2.089640621341     2.089640621341     4.180289544697
  Ni_up Ni_down O
  1 1 2
Direct
      0.000000000000     0.000000000000     0.000000000000
      0.500000000000     0.500000000000     0.500000000000
      0.250000000000     0.250000000000     0.250000000000
      0.750000000000     0.750000000000     0.750000000000
