Ni4 2x2x2 phonon supercell
1.0000000000000000
      7.035970467044     0.000000000000     0.000000000000
      0.000000000000     7.035970467044     0.000000000000
     -0.000000000000    -0.000000000000     7.035970467044
  Ni
  32
Direct
      0.000000000000     0.000000000000     0.000000000000
      0.000000000000     0.000000000000     0.500000000000
      0.000000000000     0.500000000000     0.000000000000
      0.000000000000     0.500000000000     0.500000000000
      0.500000000000     0.000000000000     0.000000000000
      0.500000000000     0.000000000000     0.500000000000
      0.500000000000     0.500000000000     0.000000000000
      0.500000000000     0.500000000000     0.500000000000
      0.000000000000     0.250000000000     0.250000000000
      0.000000000000     0.250000000000     0.750000000000
      0.000000000000     0.750000000000     0.250000000000
      0.000000000000     0.750000000000     0.750000000000
      0.500000000000     0.250000000000     0.250000000000
      0.500000000000     0.250000000000     0.750000000000
      0.500000000000     0.750000000000     0.250000000000
      0.500000000000     0.750000000000     0.750000000000
      0.250000000000     0.000000000000     0.250000000000
      0.250000000000     0.000000000000     0.750000000000
      0.250000000000     0.500000000000     0.250000000000
      0.250000000000     0.500000000000     0.750000000000
      0.750000000000     0.000000000000     0.250000000000
      0.750000000000     0.000000000000     0.750000000000
      0.750000000000     0.500000000000     0.250000000000
      0.750000000000     0.500000000000     0.750000000000
      0.250000000000     0.250000000000     0.000000000000
      0.250000000000     0.250000000000     0.500000000000
      0.250000000000     0.750000000000     0.000000000000
      0.250000000000     0.750000000000     0.500000000000
      0.750000000000     0.250000000000     0.000000000000
      0.750000000000     0.250000000000     0.500000000000
      0.750000000000     0.750000000000     0.000000000000
      0.750000000000     0.750000000000     0.500000000000
