AFM-II NiO
1.0
   4.1863375874188264    2.0931687937094132    2.0931687937094132
   2.0931687937094132    4.1863375874188264    2.0931687937094132
   2.0931687937094132    2.0931687937094132    4.1863375874188264
Ni O
2 2
direct
   0.0000000000000000    0.0000000000000000    0.0000000000000000 Ni2+ up
   0.5000000000000000    0.5000000000000000    0.5000000000000000 Ni2+ down
   0.2500000000000000    0.2500000000000000    0.2500000000000000 O2-
   0.7500000000000000    0.7500000000000000    0.7500000000000000 O2-
