Ni4 primitive fcc cell 2x2x2 phonon supercell
1.0000000000000000
      0.000000000000     3.517985233522     3.517985233522
      3.517985233522     0.000000000000     3.517985233522
      3.517985233522     3.517985233522     0.000000000000
  Ni
  8
Direct
      0.000000000000     0.000000000000     0.000000000000
      0.000000000000     0.000000000000     0.500000000000
      0.000000000000     0.500000000000     0.000000000000
      0.000000000000     0.500000000000     0.500000000000
      0.500000000000     0.000000000000     0.000000000000
      0.500000000000     0.000000000000     0.500000000000
      0.500000000000     0.500000000000     0.000000000000
      0.500000000000     0.500000000000     0.500000000000
