SYSTEM = NiO DFT+U FM relaxation

        ISTART = 0
        ICHARG = 2

        PREC   = Accurate
        ENCUT  = 700
        EDIFF  = 1E-7
        EDIFFG = -0.02
        NELM   = 200
        LREAL  = .FALSE.
        LASPH  = .TRUE.
        ADDGRID = .TRUE.

        ISPIN  = 2
MAGMOM = 2*2.0 2*0.0
                LDAU      = .TRUE.
        LDAUTYPE  = 2
        LDAUL     = 2 -1
        LDAUU     = 7.2 0.0
        LDAUJ     = 1.0 0.0
        LDAUPRINT = 1
        LMAXMIX   = 4

        AMIX      = 0.2
        BMIX      = 0.00001
        AMIX_MAG  = 0.8
        BMIX_MAG  = 0.00001

        IBRION = 2
        NSW    = 120
        ISIF   = 3
        POTIM  = 0.5

        ISMEAR = 0
SIGMA  = 0.05

        LORBIT = 11
        LWAVE  = .FALSE.
        LCHARG = .FALSE.
