AFM-II NiO                              
   1.0000000000000000     
     4.1802895446974055    2.0896406213409726    2.0896406213409726
     2.0896406213409726    4.1802895446974055    2.0896406213409726
     2.0896406213409726    2.0896406213409726    4.1802895446974055
  Ni              O             
     2     2
Direct
     0.0000000000000000    0.0000000000000000    0.0000000000000000
     0.5000000000000000    0.5000000000000000    0.5000000000000000
     0.2500000000000000    0.2500000000000000    0.2500000000000000
     0.7500000000000000    0.7500000000000000    0.7500000000000000

  0.00000000E+00  0.00000000E+00  0.00000000E+00
  0.00000000E+00  0.00000000E+00  0.00000000E+00
  0.00000000E+00  0.00000000E+00  0.00000000E+00
  0.00000000E+00  0.00000000E+00  0.00000000E+00
